words_hard_train/5338.qaiger
aag 83 16 0 1 67
2
4
8
12
18
20
46
48
76
78
86
90
96
98
104
106
167
6 3 4
10 7 9
14 7 12
16 11 15
22 19 20
24 13 9
26 3 5
28 24 26
30 22 28
32 23 29
34 31 33
36 2 9
38 15 37
40 34 38
42 35 39
44 41 43
50 47 48
52 28 19
54 52 21
56 50 55
58 51 54
60 57 59
62 28 18
64 63 43
66 61 64
68 60 65
70 67 69
72 45 71
74 17 72
80 77 78
82 54 47
84 82 49
88 84 87
92 88 91
94 80 93
100 97 98
102 94 100
108 105 106
110 103 109
112 74 111
114 84 86
116 87 90
118 116 85
120 117 84
122 119 121
124 54 46
126 69 125
128 122 127
130 115 129
132 100 77
134 133 92
136 135 108
138 130 137
140 81 92
142 141 95
144 139 143
146 112 145
148 123 126
150 115 142
152 148 151
154 153 129
156 146 155
158 92 77
160 158 79
162 100 108
164 161 162
166 156 165
i0 2 y2[0]
i1 1 x1[0]
i2 1 x1[1]
i3 2 y2[1]
i4 2 y2[2]
i5 1 x1[2]
i6 2 y2[3]
i7 1 x1[3]
i8 2 y2[5]
i9 1 x1[5]
i10 2 y2[4]
i11 1 x1[4]
i12 2 y2[6]
i13 1 x1[6]
i14 2 y2[7]
i15 1 x1[7]
o0 bv[0]
c
simplified
  >
    subtract
      2 y2
      or
        1 x1
        2 y2
    reverse
      1
