words_hard_train/5338.qaiger.qdimacs
p cnf 83 202
a 2 4 39 10 45 49 53 24 0
e 1 3 5 6 7 8 9 11 12 13 14 15 16 17 18 19 20 21 22 23 25 26 27 28 29 30 31 32 33 34 35 36 37 38 40 41 42 43 44 46 47 48 50 51 52 54 55 56 57 58 59 60 61 62 63 64 65 66 67 68 69 70 71 72 73 74 75 76 77 78 79 80 81 82 83 0
1 -2 3 0
-1 -3 0
2 -3 0
3 4 5 0
-3 -5 0
-4 -5 0
3 -6 7 0
-3 -7 0
6 -7 0
5 7 8 0
-5 -8 0
-7 -8 0
9 -10 11 0
-9 -11 0
10 -11 0
6 4 12 0
-6 -12 0
-4 -12 0
1 2 13 0
-1 -13 0
-2 -13 0
-12 -13 14 0
12 -14 0
13 -14 0
-11 -14 15 0
11 -15 0
14 -15 0
11 14 16 0
-11 -16 0
-14 -16 0
15 16 17 0
-15 -17 0
-16 -17 0
-1 4 18 0
1 -18 0
-4 -18 0
7 18 19 0
-7 -19 0
-18 -19 0
-17 -19 20 0
17 -20 0
19 -20 0
17 19 21 0
-17 -21 0
-19 -21 0
20 21 22 0
-20 -22 0
-21 -22 0
23 -24 25 0
-23 -25 0
24 -25 0
-14 9 26 0
14 -26 0
-9 -26 0
-26 10 27 0
26 -27 0
-10 -27 0
-25 27 28 0
25 -28 0
-27 -28 0
25 -27 29 0
-25 -29 0
27 -29 0
28 29 30 0
-28 -30 0
-29 -30 0
-14 -9 31 0
14 -31 0
9 -31 0
31 21 32 0
-31 -32 0
-21 -32 0
30 -32 33 0
-30 -33 0
32 -33 0
-30 32 34 0
30 -34 0
-32 -34 0
33 34 35 0
-33 -35 0
-34 -35 0
22 35 36 0
-22 -36 0
-35 -36 0
8 -36 37 0
-8 -37 0
36 -37 0
38 -39 40 0
-38 -40 0
39 -40 0
-27 23 41 0
27 -41 0
-23 -41 0
-41 24 42 0
41 -42 0
-24 -42 0
-42 43 44 0
42 -44 0
-43 -44 0
-44 45 46 0
44 -46 0
-45 -46 0
-40 46 47 0
40 -47 0
-46 -47 0
48 -49 50 0
-48 -50 0
49 -50 0
-47 -50 51 0
47 -51 0
50 -51 0
52 -53 54 0
-52 -54 0
53 -54 0
51 54 55 0
-51 -55 0
-54 -55 0
-37 55 56 0
37 -56 0
-55 -56 0
-42 -43 57 0
42 -57 0
43 -57 0
43 -45 58 0
-43 -58 0
45 -58 0
-58 42 59 0
58 -59 0
-42 -59 0
58 -42 60 0
-58 -60 0
42 -60 0
59 60 61 0
-59 -61 0
-60 -61 0
-27 -23 62 0
27 -62 0
23 -62 0
34 62 63 0
-34 -63 0
-62 -63 0
-61 63 64 0
61 -64 0
-63 -64 0
57 64 65 0
-57 -65 0
-64 -65 0
-50 38 66 0
50 -66 0
-38 -66 0
66 -46 67 0
-66 -67 0
46 -67 0
67 -54 68 0
-67 -68 0
54 -68 0
-65 68 69 0
65 -69 0
-68 -69 0
40 -46 70 0
-40 -70 0
46 -70 0
70 47 71 0
-70 -71 0
-47 -71 0
69 71 72 0
-69 -72 0
-71 -72 0
-56 72 73 0
56 -73 0
-72 -73 0
61 -63 74 0
-61 -74 0
63 -74 0
57 -71 75 0
-57 -75 0
71 -75 0
-74 75 76 0
74 -76 0
-75 -76 0
76 64 77 0
-76 -77 0
-64 -77 0
-73 77 78 0
73 -78 0
-77 -78 0
-46 38 79 0
46 -79 0
-38 -79 0
-79 39 80 0
79 -80 0
-39 -80 0
-50 -54 81 0
50 -81 0
54 -81 0
80 -81 82 0
-80 -82 0
81 -82 0
-78 82 83 0
78 -83 0
-82 -83 0
-83 0
